<number of tasks>
50

<cycle time>
1000

<order strength>
0.198


<task times>
1 393
2 697
3 502
4 376
5 562
6 638
7 543
8 272
9 462
10 396
11 381
12 379
13 590
14 503
15 451
16 267
17 510
18 641
19 634
20 390
21 557
22 651
23 359
24 566
25 549
26 493
27 554
28 598
29 339
30 511
31 356
32 323
33 542
34 460
35 274
36 712
37 328
38 756
39 533
40 440
41 476
42 551
43 573
44 376
45 474
46 537
47 557
48 388
49 376
50 158

<precedence relations>
1,10
1,27
1,50
2,13
2,39
3,9
5,8
5,11
5,12
6,12
6,49
8,25
10,18
11,17
11,19
11,43
12,14
12,16
12,33
13,15
15,21
16,20
16,24
17,25
17,26
17,27
18,22
19,23
19,24
20,31
20,44
22,39
23,30
23,33
24,29
24,34
26,32
27,28
29,35
30,39
31,36
31,37
31,38
31,48
35,44
35,46
36,45
37,40
37,43
39,41
39,42
41,47
41,48
42,49
44,50

<end>
